c colouring generated by benchmark framework
p edge 250 3218
v 1 11
v 2 4
v 3 3
v 4 5
v 5 9
v 6 2
v 7 6
v 8 4
v 9 9
v 10 8
v 11 5
v 12 5
v 13 10
v 14 5
v 15 1
v 16 2
v 17 10
v 18 4
v 19 8
v 20 10
v 21 6
v 22 1
v 23 5
v 24 10
v 25 5
v 26 11
v 27 2
v 28 6
v 29 1
v 30 8
v 31 8
v 32 3
v 33 11
v 34 9
v 35 5
v 36 4
v 37 10
v 38 3
v 39 0
v 40 9
v 41 10
v 42 10
v 43 5
v 44 7
v 45 0
v 46 9
v 47 11
v 48 7
v 49 10
v 50 1
v 51 7
v 52 8
v 53 5
v 54 6
v 55 5
v 56 9
v 57 6
v 58 4
v 59 10
v 60 1
v 61 1
v 62 8
v 63 5
v 64 3
v 65 7
v 66 7
v 67 3
v 68 6
v 69 7
v 70 2
v 71 7
v 72 2
v 73 11
v 74 3
v 75 0
v 76 2
v 77 11
v 78 10
v 79 0
v 80 9
v 81 5
v 82 3
v 83 0
v 84 3
v 85 2
v 86 9
v 87 11
v 88 7
v 89 9
v 90 10
v 91 4
v 92 9
v 93 6
v 94 6
v 95 5
v 96 4
v 97 6
v 98 3
v 99 1
v 100 3
v 101 2
v 102 10
v 103 4
v 104 8
v 105 11
v 106 5
v 107 2
v 108 4
v 109 11
v 110 8
v 111 11
v 112 2
v 113 8
v 114 7
v 115 3
v 116 7
v 117 9
v 118 5
v 119 4
v 120 7
v 121 3
v 122 4
v 123 2
v 124 0
v 125 10
v 126 8
v 127 8
v 128 0
v 129 11
v 130 1
v 131 0
v 132 6
v 133 2
v 134 1
v 135 0
v 136 6
v 137 8
v 138 0
v 139 11
v 140 11
v 141 7
v 142 11
v 143 0
v 144 2
v 145 11
v 146 11
v 147 3
v 148 9
v 149 10
v 150 9
v 151 4
v 152 1
v 153 0
v 154 9
v 155 4
v 156 6
v 157 3
v 158 0
v 159 11
v 160 7
v 161 7
v 162 6
v 163 5
v 164 8
v 165 1
v 166 7
v 167 1
v 168 7
v 169 11
v 170 0
v 171 4
v 172 6
v 173 8
v 174 5
v 175 11
v 176 3
v 177 8
v 178 1
v 179 1
v 180 9
v 181 6
v 182 1
v 183 2
v 184 0
v 185 3
v 186 1
v 187 1
v 188 0
v 189 1
v 190 6
v 191 10
v 192 3
v 193 5
v 194 1
v 195 3
v 196 9
v 197 9
v 198 6
v 199 0
v 200 5
v 201 0
v 202 4
v 203 9
v 204 0
v 205 4
v 206 5
v 207 4
v 208 9
v 209 0
v 210 10
v 211 8
v 212 2
v 213 11
v 214 7
v 215 2
v 216 4
v 217 2
v 218 0
v 219 4
v 220 9
v 221 5
v 222 6
v 223 2
v 224 1
v 225 9
v 226 5
v 227 8
v 228 6
v 229 1
v 230 3
v 231 1
v 232 5
v 233 7
v 234 6
v 235 6
v 236 8
v 237 7
v 238 4
v 239 2
v 240 0
v 241 10
v 242 2
v 243 3
v 244 8
v 245 8
v 246 7
v 247 1
v 248 1
v 249 6
v 250 5
